data/exact/exact_016.gr
p tdp 26 51
1 2
1 4
1 5
1 6
2 3
2 4
3 4
3 5
4 5
5 6
6 8
6 7
6 10
7 8
7 9
7 10
8 9
8 10
9 11
9 12
11 12
11 13
11 14
12 13
12 14
13 26
13 14
14 26
14 18
15 16
15 17
15 19
15 20
16 17
16 18
17 19
17 20
18 26
18 20
19 21
19 22
20 26
21 22
21 23
21 24
22 23
22 24
22 25
23 24
23 25
24 25
