solutions/best/exact/exact_016.sol
7
5
6
5
2
4
14
9
7
6
8
9
11
0
13
20
19
15
20
14
16
24
19
22
23
24
18
